nK = 2270;
nT = 8;
nI = 21;
L = 35;
TT = 485;
np = 1;
nc = 3;
b = [39, 32, 51, 26, 48, 65, 21, 46, 54, 35, 64, 63, 64, 24, 47, 57, 67, 46, 53, 28, 46];
d = [68, 127, 92, 140, 123, 139, 112, 98, 130, 95, 104, 99, 124, 43, 143, 104, 113, 79, 102, 108, 121];
m = [2.2, 2.3, 1.2, 2, 1.3, 2, 2.2, 2.2, 1.8, 1.3, 1.8, 1.4, 2.4, 1.8, 1.7, 2, 1.6, 2.3, 1.9, 1.9, 1.8];
pt = [0.21, 0.29, 0.23, 0.33, 0.26, 0.32, 0.27, 0.35];
st = [8.4, 15.95, 12.88, 14.85, 15.34, 15.04, 12.15, 20.65];
arc = {<1, 0, 1, 1, 0, 0, 0, [1, 1, 1, 1, 1, 1, 1, 1]>, <2, 1, 2, 1, 0, 0, 0, [1, 1, 1, 1, 1, 1, 1, 1]>, <3, 2, 3, 1, 0, 0, 0, [1, 1, 1, 1, 1, 1, 1, 1]>, <4, 3, 4, 1, 0, 0, 0, [1, 1, 1, 1, 1, 1, 1, 1]>, <5, 4, 5, 1, 0, 0, 0, [1, 1, 1, 1, 1, 1, 1, 1]>, <6, 5, 6, 1, 0, 0, 0, [1, 1, 1, 1, 1, 1, 1, 1]>, <7, 6, 7, 1, 0, 0, 0, [1, 1, 1, 1, 1, 1, 1, 1]>, <8, 7, 8, 1, 0, 0, 0, [1, 1, 1, 1, 1, 1, 1, 1]>, <9, 8, 9, 1, 0, 0, 0, [1, 1, 1, 1, 1, 1, 1, 1]>, <10, 9, 10, 1, 0, 0, 0, [1, 1, 1, 1, 1, 1, 1, 1]>, <11, 10, 11, 1, 0, 0, 0, [1, 1, 1, 1, 1, 1, 1, 1]>, <12, 11, 12, 1, 0, 0, 0, [1, 1, 1, 1, 1, 1, 1, 1]>, <13, 12, 13, 1, 0, 0, 0, [1, 1, 1, 1, 1, 1, 1, 1]>, <14, 13, 14, 1, 0, 0, 0, [1, 1, 1, 1, 1, 1, 1, 1]>, <15, 14, 15, 1, 0, 0, 0, [1, 1, 1, 1, 1, 1, 1, 1]>, <16, 15, 16, 1, 0, 0, 0, [1, 1, 1, 1, 1, 1, 1, 1]>, <17, 16, 17, 1, 0, 0, 0, [1, 1, 1, 1, 1, 1, 1, 1]>, <18, 17, 18, 1, 0, 0, 0, [1, 1, 1, 1, 1, 1, 1, 1]>, <19, 18, 19, 1, 0, 0, 0, [1, 1, 1, 1, 1, 1, 1, 1]>, <20, 19, 20, 1, 0, 0, 0, [1, 1, 1, 1, 1, 1, 1, 1]>, <21, 20, 21, 1, 0, 0, 0, [1, 1, 1, 1, 1, 1, 1, 1]>, <22, 21, 22, 1, 0, 0, 0, [1, 1, 1, 1, 1, 1, 1, 1]>, <23, 22, 23, 1, 0, 0, 0, [1, 1, 1, 1, 1, 1, 1, 1]>, <24, 23, 24, 1, 0, 0, 0, [1, 1, 1, 1, 1, 1, 1, 1]>, <25, 24, 25, 1, 0, 0, 0, [1, 1, 1, 1, 1, 1, 1, 1]>, <26, 25, 26, 1, 0, 0, 0, [1, 1, 1, 1, 1, 1, 1, 1]>, <27, 26, 27, 1, 0, 0, 0, [1, 1, 1, 1, 1, 1, 1, 1]>, <28, 27, 28, 1, 0, 0, 0, [1, 1, 1, 1, 1, 1, 1, 1]>, <29, 28, 29, 1, 0, 0, 0, [1, 1, 1, 1, 1, 1, 1, 1]>, <30, 29, 30, 1, 0, 0, 0, [1, 1, 1, 1, 1, 1, 1, 1]>, <31, 30, 31, 1, 0, 0, 0, [1, 1, 1, 1, 1, 1, 1, 1]>, <32, 31, 32, 1, 0, 0, 0, [1, 1, 1, 1, 1, 1, 1, 1]>, <33, 32, 33, 1, 0, 0, 0, [1, 1, 1, 1, 1, 1, 1, 1]>, <34, 33, 34, 1, 0, 0, 0, [1, 1, 1, 1, 1, 1, 1, 1]>, <35, 34, 35, 1, 0, 0, 0, [1, 1, 1, 1, 1, 1, 1, 1]>, <36, 0, 17, 17, 1, 0, 1, [0, 0, 0, 0, 0, 1, 1, 0]>, <37, 1, 18, 17, 1, 0, 1, [0, 0, 0, 0, 0, 1, 1, 0]>, <38, 2, 19, 17, 1, 0, 1, [0, 0, 0, 0, 0, 1, 1, 0]>, <39, 3, 20, 17, 1, 0, 1, [0, 0, 0, 0, 0, 1, 1, 0]>, <40, 4, 21, 17, 1, 0, 1, [0, 0, 0, 0, 0, 1, 1, 0]>, <41, 5, 22, 17, 1, 0, 1, [0, 0, 0, 0, 0, 1, 1, 0]>, <42, 6, 23, 17, 1, 0, 1, [0, 0, 0, 0, 0, 1, 1, 0]>, <43, 9, 26, 17, 1, 0, 1, [0, 0, 0, 0, 0, 1, 1, 0]>, <44, 10, 27, 17, 1, 0, 1, [0, 0, 0, 0, 0, 1, 1, 0]>, <45, 11, 28, 17, 1, 0, 1, [0, 0, 0, 0, 0, 1, 1, 0]>, <46, 12, 29, 17, 1, 0, 1, [0, 0, 0, 0, 0, 1, 1, 0]>, <47, 13, 30, 17, 1, 0, 1, [0, 0, 0, 0, 0, 1, 1, 0]>, <48, 14, 31, 17, 1, 0, 1, [0, 0, 0, 0, 0, 1, 1, 0]>, <49, 15, 32, 17, 1, 0, 1, [0, 0, 0, 0, 0, 1, 1, 0]>, <50, 16, 33, 17, 1, 0, 1, [0, 0, 0, 0, 0, 1, 1, 0]>, <51, 17, 34, 17, 1, 0, 1, [0, 0, 0, 0, 0, 1, 1, 0]>, <52, 18, 35, 17, 1, 0, 1, [0, 0, 0, 0, 0, 1, 1, 0]>, <53, 0, 17, 17, 2, 0, 0, [0, 0, 0, 0, 0, 0, 1, 1]>, <54, 1, 18, 17, 2, 0, 0, [0, 0, 0, 0, 0, 0, 1, 1]>, <55, 2, 19, 17, 2, 0, 0, [0, 0, 0, 0, 0, 0, 1, 1]>, <56, 3, 20, 17, 2, 0, 0, [0, 0, 0, 0, 0, 0, 1, 1]>, <57, 4, 21, 17, 2, 0, 0, [0, 0, 0, 0, 0, 0, 1, 1]>, <58, 5, 22, 17, 2, 0, 0, [0, 0, 0, 0, 0, 0, 1, 1]>, <59, 6, 23, 17, 2, 0, 0, [0, 0, 0, 0, 0, 0, 1, 1]>, <60, 9, 26, 17, 2, 0, 0, [0, 0, 0, 0, 0, 0, 1, 1]>, <61, 10, 27, 17, 2, 0, 0, [0, 0, 0, 0, 0, 0, 1, 1]>, <62, 11, 28, 17, 2, 0, 0, [0, 0, 0, 0, 0, 0, 1, 1]>, <63, 12, 29, 17, 2, 0, 0, [0, 0, 0, 0, 0, 0, 1, 1]>, <64, 13, 30, 17, 2, 0, 0, [0, 0, 0, 0, 0, 0, 1, 1]>, <65, 14, 31, 17, 2, 0, 0, [0, 0, 0, 0, 0, 0, 1, 1]>, <66, 15, 32, 17, 2, 0, 0, [0, 0, 0, 0, 0, 0, 1, 1]>, <67, 16, 33, 17, 2, 0, 0, [0, 0, 0, 0, 0, 0, 1, 1]>, <68, 17, 34, 17, 2, 0, 0, [0, 0, 0, 0, 0, 0, 1, 1]>, <69, 18, 35, 17, 2, 0, 0, [0, 0, 0, 0, 0, 0, 1, 1]>, <70, 0, 17, 17, 3, 0, 1, [0, 0, 0, 0, 0, 1, 1, 0]>, <71, 1, 18, 17, 3, 0, 1, [0, 0, 0, 0, 0, 1, 1, 0]>, <72, 2, 19, 17, 3, 0, 1, [0, 0, 0, 0, 0, 1, 1, 0]>, <73, 3, 20, 17, 3, 0, 1, [0, 0, 0, 0, 0, 1, 1, 0]>, <74, 4, 21, 17, 3, 0, 1, [0, 0, 0, 0, 0, 1, 1, 0]>, <75, 5, 22, 17, 3, 0, 1, [0, 0, 0, 0, 0, 1, 1, 0]>, <76, 6, 23, 17, 3, 0, 1, [0, 0, 0, 0, 0, 1, 1, 0]>, <77, 9, 26, 17, 3, 0, 1, [0, 0, 0, 0, 0, 1, 1, 0]>, <78, 10, 27, 17, 3, 0, 1, [0, 0, 0, 0, 0, 1, 1, 0]>, <79, 11, 28, 17, 3, 0, 1, [0, 0, 0, 0, 0, 1, 1, 0]>, <80, 12, 29, 17, 3, 0, 1, [0, 0, 0, 0, 0, 1, 1, 0]>, <81, 13, 30, 17, 3, 0, 1, [0, 0, 0, 0, 0, 1, 1, 0]>, <82, 14, 31, 17, 3, 0, 1, [0, 0, 0, 0, 0, 1, 1, 0]>, <83, 15, 32, 17, 3, 0, 1, [0, 0, 0, 0, 0, 1, 1, 0]>, <84, 16, 33, 17, 3, 0, 1, [0, 0, 0, 0, 0, 1, 1, 0]>, <85, 17, 34, 17, 3, 0, 1, [0, 0, 0, 0, 0, 1, 1, 0]>, <86, 18, 35, 17, 3, 0, 1, [0, 0, 0, 0, 0, 1, 1, 0]>, <87, 3, 17, 14, 4, 1, 0, [0, 0, 0, 1, 1, 0, 0, 0]>, <88, 4, 18, 14, 4, 1, 0, [0, 0, 0, 1, 1, 0, 0, 0]>, <89, 5, 19, 14, 4, 1, 0, [0, 0, 0, 1, 1, 0, 0, 0]>, <90, 6, 20, 14, 4, 1, 0, [0, 0, 0, 1, 1, 0, 0, 0]>, <91, 12, 26, 14, 4, 1, 0, [0, 0, 0, 1, 1, 0, 0, 0]>, <92, 13, 27, 14, 4, 1, 0, [0, 0, 0, 1, 1, 0, 0, 0]>, <93, 14, 28, 14, 4, 1, 0, [0, 0, 0, 1, 1, 0, 0, 0]>, <94, 15, 29, 14, 4, 1, 0, [0, 0, 0, 1, 1, 0, 0, 0]>, <95, 17, 31, 14, 4, 1, 0, [0, 0, 0, 1, 1, 0, 0, 0]>, <96, 18, 32, 14, 4, 1, 0, [0, 0, 0, 1, 1, 0, 0, 0]>, <97, 19, 33, 14, 4, 1, 0, [0, 0, 0, 1, 1, 0, 0, 0]>, <98, 20, 34, 14, 4, 1, 0, [0, 0, 0, 1, 1, 0, 0, 0]>, <99, 21, 35, 14, 4, 1, 0, [0, 0, 0, 1, 1, 0, 0, 0]>, <100, 0, 18, 18, 5, 0, 0, [0, 0, 0, 0, 1, 1, 0, 0]>, <101, 1, 19, 18, 5, 0, 0, [0, 0, 0, 0, 1, 1, 0, 0]>, <102, 2, 20, 18, 5, 0, 0, [0, 0, 0, 0, 1, 1, 0, 0]>, <103, 3, 21, 18, 5, 0, 0, [0, 0, 0, 0, 1, 1, 0, 0]>, <104, 4, 22, 18, 5, 0, 0, [0, 0, 0, 0, 1, 1, 0, 0]>, <105, 5, 23, 18, 5, 0, 0, [0, 0, 0, 0, 1, 1, 0, 0]>, <106, 6, 24, 18, 5, 0, 0, [0, 0, 0, 0, 1, 1, 0, 0]>, <107, 8, 26, 18, 5, 0, 0, [0, 0, 0, 0, 1, 1, 0, 0]>, <108, 9, 27, 18, 5, 0, 0, [0, 0, 0, 0, 1, 1, 0, 0]>, <109, 10, 28, 18, 5, 0, 0, [0, 0, 0, 0, 1, 1, 0, 0]>, <110, 11, 29, 18, 5, 0, 0, [0, 0, 0, 0, 1, 1, 0, 0]>, <111, 12, 30, 18, 5, 0, 0, [0, 0, 0, 0, 1, 1, 0, 0]>, <112, 13, 31, 18, 5, 0, 0, [0, 0, 0, 0, 1, 1, 0, 0]>, <113, 14, 32, 18, 5, 0, 0, [0, 0, 0, 0, 1, 1, 0, 0]>, <114, 15, 33, 18, 5, 0, 0, [0, 0, 0, 0, 1, 1, 0, 0]>, <115, 16, 34, 18, 5, 0, 0, [0, 0, 0, 0, 1, 1, 0, 0]>, <116, 17, 35, 18, 5, 0, 0, [0, 0, 0, 0, 1, 1, 0, 0]>, <117, 2, 17, 15, 6, 1, 0, [0, 0, 0, 1, 1, 0, 0, 0]>, <118, 3, 18, 15, 6, 1, 0, [0, 0, 0, 1, 1, 0, 0, 0]>, <119, 4, 19, 15, 6, 1, 0, [0, 0, 0, 1, 1, 0, 0, 0]>, <120, 5, 20, 15, 6, 1, 0, [0, 0, 0, 1, 1, 0, 0, 0]>, <121, 6, 21, 15, 6, 1, 0, [0, 0, 0, 1, 1, 0, 0, 0]>, <122, 11, 26, 15, 6, 1, 0, [0, 0, 0, 1, 1, 0, 0, 0]>, <123, 12, 27, 15, 6, 1, 0, [0, 0, 0, 1, 1, 0, 0, 0]>, <124, 13, 28, 15, 6, 1, 0, [0, 0, 0, 1, 1, 0, 0, 0]>, <125, 14, 29, 15, 6, 1, 0, [0, 0, 0, 1, 1, 0, 0, 0]>, <126, 15, 30, 15, 6, 1, 0, [0, 0, 0, 1, 1, 0, 0, 0]>, <127, 16, 31, 15, 6, 1, 0, [0, 0, 0, 1, 1, 0, 0, 0]>, <128, 17, 32, 15, 6, 1, 0, [0, 0, 0, 1, 1, 0, 0, 0]>, <129, 18, 33, 15, 6, 1, 0, [0, 0, 0, 1, 1, 0, 0, 0]>, <130, 19, 34, 15, 6, 1, 0, [0, 0, 0, 1, 1, 0, 0, 0]>, <131, 20, 35, 15, 6, 1, 0, [0, 0, 0, 1, 1, 0, 0, 0]>, <132, 2, 17, 15, 7, 0, 0, [1, 1, 0, 0, 0, 0, 0, 0]>, <133, 3, 18, 15, 7, 0, 0, [1, 1, 0, 0, 0, 0, 0, 0]>, <134, 4, 19, 15, 7, 0, 0, [1, 1, 0, 0, 0, 0, 0, 0]>, <135, 5, 20, 15, 7, 0, 0, [1, 1, 0, 0, 0, 0, 0, 0]>, <136, 6, 21, 15, 7, 0, 0, [1, 1, 0, 0, 0, 0, 0, 0]>, <137, 11, 26, 15, 7, 0, 0, [1, 1, 0, 0, 0, 0, 0, 0]>, <138, 12, 27, 15, 7, 0, 0, [1, 1, 0, 0, 0, 0, 0, 0]>, <139, 13, 28, 15, 7, 0, 0, [1, 1, 0, 0, 0, 0, 0, 0]>, <140, 14, 29, 15, 7, 0, 0, [1, 1, 0, 0, 0, 0, 0, 0]>, <141, 15, 30, 15, 7, 0, 0, [1, 1, 0, 0, 0, 0, 0, 0]>, <142, 16, 31, 15, 7, 0, 0, [1, 1, 0, 0, 0, 0, 0, 0]>, <143, 17, 32, 15, 7, 0, 0, [1, 1, 0, 0, 0, 0, 0, 0]>, <144, 18, 33, 15, 7, 0, 0, [1, 1, 0, 0, 0, 0, 0, 0]>, <145, 19, 34, 15, 7, 0, 0, [1, 1, 0, 0, 0, 0, 0, 0]>, <146, 20, 35, 15, 7, 0, 0, [1, 1, 0, 0, 0, 0, 0, 0]>, <147, 3, 17, 14, 8, 0, 0, [0, 0, 1, 1, 0, 0, 0, 0]>, <148, 4, 18, 14, 8, 0, 0, [0, 0, 1, 1, 0, 0, 0, 0]>, <149, 5, 19, 14, 8, 0, 0, [0, 0, 1, 1, 0, 0, 0, 0]>, <150, 6, 20, 14, 8, 0, 0, [0, 0, 1, 1, 0, 0, 0, 0]>, <151, 12, 26, 14, 8, 0, 0, [0, 0, 1, 1, 0, 0, 0, 0]>, <152, 13, 27, 14, 8, 0, 0, [0, 0, 1, 1, 0, 0, 0, 0]>, <153, 14, 28, 14, 8, 0, 0, [0, 0, 1, 1, 0, 0, 0, 0]>, <154, 15, 29, 14, 8, 0, 0, [0, 0, 1, 1, 0, 0, 0, 0]>, <155, 17, 31, 14, 8, 0, 0, [0, 0, 1, 1, 0, 0, 0, 0]>, <156, 18, 32, 14, 8, 0, 0, [0, 0, 1, 1, 0, 0, 0, 0]>, <157, 19, 33, 14, 8, 0, 0, [0, 0, 1, 1, 0, 0, 0, 0]>, <158, 20, 34, 14, 8, 0, 0, [0, 0, 1, 1, 0, 0, 0, 0]>, <159, 21, 35, 14, 8, 0, 0, [0, 0, 1, 1, 0, 0, 0, 0]>, <160, 2, 17, 15, 9, 1, 0, [0, 1, 1, 0, 0, 0, 0, 0]>, <161, 3, 18, 15, 9, 1, 0, [0, 1, 1, 0, 0, 0, 0, 0]>, <162, 4, 19, 15, 9, 1, 0, [0, 1, 1, 0, 0, 0, 0, 0]>, <163, 5, 20, 15, 9, 1, 0, [0, 1, 1, 0, 0, 0, 0, 0]>, <164, 6, 21, 15, 9, 1, 0, [0, 1, 1, 0, 0, 0, 0, 0]>, <165, 11, 26, 15, 9, 1, 0, [0, 1, 1, 0, 0, 0, 0, 0]>, <166, 12, 27, 15, 9, 1, 0, [0, 1, 1, 0, 0, 0, 0, 0]>, <167, 13, 28, 15, 9, 1, 0, [0, 1, 1, 0, 0, 0, 0, 0]>, <168, 14, 29, 15, 9, 1, 0, [0, 1, 1, 0, 0, 0, 0, 0]>, <169, 15, 30, 15, 9, 1, 0, [0, 1, 1, 0, 0, 0, 0, 0]>, <170, 16, 31, 15, 9, 1, 0, [0, 1, 1, 0, 0, 0, 0, 0]>, <171, 17, 32, 15, 9, 1, 0, [0, 1, 1, 0, 0, 0, 0, 0]>, <172, 18, 33, 15, 9, 1, 0, [0, 1, 1, 0, 0, 0, 0, 0]>, <173, 19, 34, 15, 9, 1, 0, [0, 1, 1, 0, 0, 0, 0, 0]>, <174, 20, 35, 15, 9, 1, 0, [0, 1, 1, 0, 0, 0, 0, 0]>, <175, 0, 18, 18, 10, 0, 1, [0, 0, 0, 0, 1, 1, 0, 0]>, <176, 1, 19, 18, 10, 0, 1, [0, 0, 0, 0, 1, 1, 0, 0]>, <177, 2, 20, 18, 10, 0, 1, [0, 0, 0, 0, 1, 1, 0, 0]>, <178, 3, 21, 18, 10, 0, 1, [0, 0, 0, 0, 1, 1, 0, 0]>, <179, 4, 22, 18, 10, 0, 1, [0, 0, 0, 0, 1, 1, 0, 0]>, <180, 5, 23, 18, 10, 0, 1, [0, 0, 0, 0, 1, 1, 0, 0]>, <181, 6, 24, 18, 10, 0, 1, [0, 0, 0, 0, 1, 1, 0, 0]>, <182, 8, 26, 18, 10, 0, 1, [0, 0, 0, 0, 1, 1, 0, 0]>, <183, 9, 27, 18, 10, 0, 1, [0, 0, 0, 0, 1, 1, 0, 0]>, <184, 10, 28, 18, 10, 0, 1, [0, 0, 0, 0, 1, 1, 0, 0]>, <185, 11, 29, 18, 10, 0, 1, [0, 0, 0, 0, 1, 1, 0, 0]>, <186, 12, 30, 18, 10, 0, 1, [0, 0, 0, 0, 1, 1, 0, 0]>, <187, 13, 31, 18, 10, 0, 1, [0, 0, 0, 0, 1, 1, 0, 0]>, <188, 14, 32, 18, 10, 0, 1, [0, 0, 0, 0, 1, 1, 0, 0]>, <189, 15, 33, 18, 10, 0, 1, [0, 0, 0, 0, 1, 1, 0, 0]>, <190, 16, 34, 18, 10, 0, 1, [0, 0, 0, 0, 1, 1, 0, 0]>, <191, 17, 35, 18, 10, 0, 1, [0, 0, 0, 0, 1, 1, 0, 0]>, <192, 2, 17, 15, 11, 0, 1, [1, 1, 0, 0, 0, 0, 0, 0]>, <193, 3, 18, 15, 11, 0, 1, [1, 1, 0, 0, 0, 0, 0, 0]>, <194, 4, 19, 15, 11, 0, 1, [1, 1, 0, 0, 0, 0, 0, 0]>, <195, 5, 20, 15, 11, 0, 1, [1, 1, 0, 0, 0, 0, 0, 0]>, <196, 6, 21, 15, 11, 0, 1, [1, 1, 0, 0, 0, 0, 0, 0]>, <197, 11, 26, 15, 11, 0, 1, [1, 1, 0, 0, 0, 0, 0, 0]>, <198, 12, 27, 15, 11, 0, 1, [1, 1, 0, 0, 0, 0, 0, 0]>, <199, 13, 28, 15, 11, 0, 1, [1, 1, 0, 0, 0, 0, 0, 0]>, <200, 14, 29, 15, 11, 0, 1, [1, 1, 0, 0, 0, 0, 0, 0]>, <201, 15, 30, 15, 11, 0, 1, [1, 1, 0, 0, 0, 0, 0, 0]>, <202, 16, 31, 15, 11, 0, 1, [1, 1, 0, 0, 0, 0, 0, 0]>, <203, 17, 32, 15, 11, 0, 1, [1, 1, 0, 0, 0, 0, 0, 0]>, <204, 18, 33, 15, 11, 0, 1, [1, 1, 0, 0, 0, 0, 0, 0]>, <205, 19, 34, 15, 11, 0, 1, [1, 1, 0, 0, 0, 0, 0, 0]>, <206, 20, 35, 15, 11, 0, 1, [1, 1, 0, 0, 0, 0, 0, 0]>, <207, 2, 17, 15, 12, 0, 0, [0, 0, 0, 0, 0, 1, 1, 0]>, <208, 3, 18, 15, 12, 0, 0, [0, 0, 0, 0, 0, 1, 1, 0]>, <209, 4, 19, 15, 12, 0, 0, [0, 0, 0, 0, 0, 1, 1, 0]>, <210, 5, 20, 15, 12, 0, 0, [0, 0, 0, 0, 0, 1, 1, 0]>, <211, 6, 21, 15, 12, 0, 0, [0, 0, 0, 0, 0, 1, 1, 0]>, <212, 11, 26, 15, 12, 0, 0, [0, 0, 0, 0, 0, 1, 1, 0]>, <213, 12, 27, 15, 12, 0, 0, [0, 0, 0, 0, 0, 1, 1, 0]>, <214, 13, 28, 15, 12, 0, 0, [0, 0, 0, 0, 0, 1, 1, 0]>, <215, 14, 29, 15, 12, 0, 0, [0, 0, 0, 0, 0, 1, 1, 0]>, <216, 15, 30, 15, 12, 0, 0, [0, 0, 0, 0, 0, 1, 1, 0]>, <217, 16, 31, 15, 12, 0, 0, [0, 0, 0, 0, 0, 1, 1, 0]>, <218, 17, 32, 15, 12, 0, 0, [0, 0, 0, 0, 0, 1, 1, 0]>, <219, 18, 33, 15, 12, 0, 0, [0, 0, 0, 0, 0, 1, 1, 0]>, <220, 19, 34, 15, 12, 0, 0, [0, 0, 0, 0, 0, 1, 1, 0]>, <221, 20, 35, 15, 12, 0, 0, [0, 0, 0, 0, 0, 1, 1, 0]>, <222, 2, 17, 15, 13, 0, 0, [0, 0, 1, 1, 0, 0, 0, 0]>, <223, 3, 18, 15, 13, 0, 0, [0, 0, 1, 1, 0, 0, 0, 0]>, <224, 4, 19, 15, 13, 0, 0, [0, 0, 1, 1, 0, 0, 0, 0]>, <225, 5, 20, 15, 13, 0, 0, [0, 0, 1, 1, 0, 0, 0, 0]>, <226, 6, 21, 15, 13, 0, 0, [0, 0, 1, 1, 0, 0, 0, 0]>, <227, 11, 26, 15, 13, 0, 0, [0, 0, 1, 1, 0, 0, 0, 0]>, <228, 12, 27, 15, 13, 0, 0, [0, 0, 1, 1, 0, 0, 0, 0]>, <229, 13, 28, 15, 13, 0, 0, [0, 0, 1, 1, 0, 0, 0, 0]>, <230, 14, 29, 15, 13, 0, 0, [0, 0, 1, 1, 0, 0, 0, 0]>, <231, 15, 30, 15, 13, 0, 0, [0, 0, 1, 1, 0, 0, 0, 0]>, <232, 16, 31, 15, 13, 0, 0, [0, 0, 1, 1, 0, 0, 0, 0]>, <233, 17, 32, 15, 13, 0, 0, [0, 0, 1, 1, 0, 0, 0, 0]>, <234, 18, 33, 15, 13, 0, 0, [0, 0, 1, 1, 0, 0, 0, 0]>, <235, 19, 34, 15, 13, 0, 0, [0, 0, 1, 1, 0, 0, 0, 0]>, <236, 20, 35, 15, 13, 0, 0, [0, 0, 1, 1, 0, 0, 0, 0]>, <237, 0, 17, 17, 14, 1, 0, [0, 0, 0, 0, 0, 0, 1, 1]>, <238, 1, 18, 17, 14, 1, 0, [0, 0, 0, 0, 0, 0, 1, 1]>, <239, 2, 19, 17, 14, 1, 0, [0, 0, 0, 0, 0, 0, 1, 1]>, <240, 3, 20, 17, 14, 1, 0, [0, 0, 0, 0, 0, 0, 1, 1]>, <241, 4, 21, 17, 14, 1, 0, [0, 0, 0, 0, 0, 0, 1, 1]>, <242, 5, 22, 17, 14, 1, 0, [0, 0, 0, 0, 0, 0, 1, 1]>, <243, 6, 23, 17, 14, 1, 0, [0, 0, 0, 0, 0, 0, 1, 1]>, <244, 9, 26, 17, 14, 1, 0, [0, 0, 0, 0, 0, 0, 1, 1]>, <245, 10, 27, 17, 14, 1, 0, [0, 0, 0, 0, 0, 0, 1, 1]>, <246, 11, 28, 17, 14, 1, 0, [0, 0, 0, 0, 0, 0, 1, 1]>, <247, 12, 29, 17, 14, 1, 0, [0, 0, 0, 0, 0, 0, 1, 1]>, <248, 13, 30, 17, 14, 1, 0, [0, 0, 0, 0, 0, 0, 1, 1]>, <249, 14, 31, 17, 14, 1, 0, [0, 0, 0, 0, 0, 0, 1, 1]>, <250, 15, 32, 17, 14, 1, 0, [0, 0, 0, 0, 0, 0, 1, 1]>, <251, 16, 33, 17, 14, 1, 0, [0, 0, 0, 0, 0, 0, 1, 1]>, <252, 17, 34, 17, 14, 1, 0, [0, 0, 0, 0, 0, 0, 1, 1]>, <253, 18, 35, 17, 14, 1, 0, [0, 0, 0, 0, 0, 0, 1, 1]>, <254, 1, 17, 16, 15, 1, 0, [1, 0, 0, 0, 0, 0, 0, 1]>, <255, 2, 18, 16, 15, 1, 0, [1, 0, 0, 0, 0, 0, 0, 1]>, <256, 3, 19, 16, 15, 1, 0, [1, 0, 0, 0, 0, 0, 0, 1]>, <257, 4, 20, 16, 15, 1, 0, [1, 0, 0, 0, 0, 0, 0, 1]>, <258, 5, 21, 16, 15, 1, 0, [1, 0, 0, 0, 0, 0, 0, 1]>, <259, 6, 22, 16, 15, 1, 0, [1, 0, 0, 0, 0, 0, 0, 1]>, <260, 10, 26, 16, 15, 1, 0, [1, 0, 0, 0, 0, 0, 0, 1]>, <261, 11, 27, 16, 15, 1, 0, [1, 0, 0, 0, 0, 0, 0, 1]>, <262, 12, 28, 16, 15, 1, 0, [1, 0, 0, 0, 0, 0, 0, 1]>, <263, 13, 29, 16, 15, 1, 0, [1, 0, 0, 0, 0, 0, 0, 1]>, <264, 14, 30, 16, 15, 1, 0, [1, 0, 0, 0, 0, 0, 0, 1]>, <265, 15, 31, 16, 15, 1, 0, [1, 0, 0, 0, 0, 0, 0, 1]>, <266, 16, 32, 16, 15, 1, 0, [1, 0, 0, 0, 0, 0, 0, 1]>, <267, 17, 33, 16, 15, 1, 0, [1, 0, 0, 0, 0, 0, 0, 1]>, <268, 18, 34, 16, 15, 1, 0, [1, 0, 0, 0, 0, 0, 0, 1]>, <269, 19, 35, 16, 15, 1, 0, [1, 0, 0, 0, 0, 0, 0, 1]>, <270, 0, 17, 17, 16, 0, 1, [0, 0, 0, 0, 0, 1, 1, 0]>, <271, 1, 18, 17, 16, 0, 1, [0, 0, 0, 0, 0, 1, 1, 0]>, <272, 2, 19, 17, 16, 0, 1, [0, 0, 0, 0, 0, 1, 1, 0]>, <273, 3, 20, 17, 16, 0, 1, [0, 0, 0, 0, 0, 1, 1, 0]>, <274, 4, 21, 17, 16, 0, 1, [0, 0, 0, 0, 0, 1, 1, 0]>, <275, 5, 22, 17, 16, 0, 1, [0, 0, 0, 0, 0, 1, 1, 0]>, <276, 6, 23, 17, 16, 0, 1, [0, 0, 0, 0, 0, 1, 1, 0]>, <277, 9, 26, 17, 16, 0, 1, [0, 0, 0, 0, 0, 1, 1, 0]>, <278, 10, 27, 17, 16, 0, 1, [0, 0, 0, 0, 0, 1, 1, 0]>, <279, 11, 28, 17, 16, 0, 1, [0, 0, 0, 0, 0, 1, 1, 0]>, <280, 12, 29, 17, 16, 0, 1, [0, 0, 0, 0, 0, 1, 1, 0]>, <281, 13, 30, 17, 16, 0, 1, [0, 0, 0, 0, 0, 1, 1, 0]>, <282, 14, 31, 17, 16, 0, 1, [0, 0, 0, 0, 0, 1, 1, 0]>, <283, 15, 32, 17, 16, 0, 1, [0, 0, 0, 0, 0, 1, 1, 0]>, <284, 16, 33, 17, 16, 0, 1, [0, 0, 0, 0, 0, 1, 1, 0]>, <285, 17, 34, 17, 16, 0, 1, [0, 0, 0, 0, 0, 1, 1, 0]>, <286, 18, 35, 17, 16, 0, 1, [0, 0, 0, 0, 0, 1, 1, 0]>, <287, 4, 17, 13, 17, 0, 0, [0, 0, 0, 1, 1, 0, 0, 0]>, <288, 5, 18, 13, 17, 0, 0, [0, 0, 0, 1, 1, 0, 0, 0]>, <289, 6, 19, 13, 17, 0, 0, [0, 0, 0, 1, 1, 0, 0, 0]>, <290, 13, 26, 13, 17, 0, 0, [0, 0, 0, 1, 1, 0, 0, 0]>, <291, 14, 27, 13, 17, 0, 0, [0, 0, 0, 1, 1, 0, 0, 0]>, <292, 15, 28, 13, 17, 0, 0, [0, 0, 0, 1, 1, 0, 0, 0]>, <293, 18, 31, 13, 17, 0, 0, [0, 0, 0, 1, 1, 0, 0, 0]>, <294, 19, 32, 13, 17, 0, 0, [0, 0, 0, 1, 1, 0, 0, 0]>, <295, 20, 33, 13, 17, 0, 0, [0, 0, 0, 1, 1, 0, 0, 0]>, <296, 21, 34, 13, 17, 0, 0, [0, 0, 0, 1, 1, 0, 0, 0]>, <297, 22, 35, 13, 17, 0, 0, [0, 0, 0, 1, 1, 0, 0, 0]>, <298, 3, 17, 14, 18, 1, 0, [0, 1, 1, 0, 0, 0, 0, 0]>, <299, 4, 18, 14, 18, 1, 0, [0, 1, 1, 0, 0, 0, 0, 0]>, <300, 5, 19, 14, 18, 1, 0, [0, 1, 1, 0, 0, 0, 0, 0]>, <301, 6, 20, 14, 18, 1, 0, [0, 1, 1, 0, 0, 0, 0, 0]>, <302, 12, 26, 14, 18, 1, 0, [0, 1, 1, 0, 0, 0, 0, 0]>, <303, 13, 27, 14, 18, 1, 0, [0, 1, 1, 0, 0, 0, 0, 0]>, <304, 14, 28, 14, 18, 1, 0, [0, 1, 1, 0, 0, 0, 0, 0]>, <305, 15, 29, 14, 18, 1, 0, [0, 1, 1, 0, 0, 0, 0, 0]>, <306, 17, 31, 14, 18, 1, 0, [0, 1, 1, 0, 0, 0, 0, 0]>, <307, 18, 32, 14, 18, 1, 0, [0, 1, 1, 0, 0, 0, 0, 0]>, <308, 19, 33, 14, 18, 1, 0, [0, 1, 1, 0, 0, 0, 0, 0]>, <309, 20, 34, 14, 18, 1, 0, [0, 1, 1, 0, 0, 0, 0, 0]>, <310, 21, 35, 14, 18, 1, 0, [0, 1, 1, 0, 0, 0, 0, 0]>, <311, 4, 17, 13, 19, 0, 0, [0, 0, 0, 0, 0, 0, 1, 1]>, <312, 5, 18, 13, 19, 0, 0, [0, 0, 0, 0, 0, 0, 1, 1]>, <313, 6, 19, 13, 19, 0, 0, [0, 0, 0, 0, 0, 0, 1, 1]>, <314, 13, 26, 13, 19, 0, 0, [0, 0, 0, 0, 0, 0, 1, 1]>, <315, 14, 27, 13, 19, 0, 0, [0, 0, 0, 0, 0, 0, 1, 1]>, <316, 15, 28, 13, 19, 0, 0, [0, 0, 0, 0, 0, 0, 1, 1]>, <317, 18, 31, 13, 19, 0, 0, [0, 0, 0, 0, 0, 0, 1, 1]>, <318, 19, 32, 13, 19, 0, 0, [0, 0, 0, 0, 0, 0, 1, 1]>, <319, 20, 33, 13, 19, 0, 0, [0, 0, 0, 0, 0, 0, 1, 1]>, <320, 21, 34, 13, 19, 0, 0, [0, 0, 0, 0, 0, 0, 1, 1]>, <321, 22, 35, 13, 19, 0, 0, [0, 0, 0, 0, 0, 0, 1, 1]>, <322, 4, 17, 13, 20, 1, 0, [0, 0, 1, 1, 0, 0, 0, 0]>, <323, 5, 18, 13, 20, 1, 0, [0, 0, 1, 1, 0, 0, 0, 0]>, <324, 6, 19, 13, 20, 1, 0, [0, 0, 1, 1, 0, 0, 0, 0]>, <325, 13, 26, 13, 20, 1, 0, [0, 0, 1, 1, 0, 0, 0, 0]>, <326, 14, 27, 13, 20, 1, 0, [0, 0, 1, 1, 0, 0, 0, 0]>, <327, 15, 28, 13, 20, 1, 0, [0, 0, 1, 1, 0, 0, 0, 0]>, <328, 18, 31, 13, 20, 1, 0, [0, 0, 1, 1, 0, 0, 0, 0]>, <329, 19, 32, 13, 20, 1, 0, [0, 0, 1, 1, 0, 0, 0, 0]>, <330, 20, 33, 13, 20, 1, 0, [0, 0, 1, 1, 0, 0, 0, 0]>, <331, 21, 34, 13, 20, 1, 0, [0, 0, 1, 1, 0, 0, 0, 0]>, <332, 22, 35, 13, 20, 1, 0, [0, 0, 1, 1, 0, 0, 0, 0]>, <333, 0, 18, 18, 21, 0, 0, [0, 1, 1, 0, 0, 0, 0, 0]>, <334, 1, 19, 18, 21, 0, 0, [0, 1, 1, 0, 0, 0, 0, 0]>, <335, 2, 20, 18, 21, 0, 0, [0, 1, 1, 0, 0, 0, 0, 0]>, <336, 3, 21, 18, 21, 0, 0, [0, 1, 1, 0, 0, 0, 0, 0]>, <337, 4, 22, 18, 21, 0, 0, [0, 1, 1, 0, 0, 0, 0, 0]>, <338, 5, 23, 18, 21, 0, 0, [0, 1, 1, 0, 0, 0, 0, 0]>, <339, 6, 24, 18, 21, 0, 0, [0, 1, 1, 0, 0, 0, 0, 0]>, <340, 8, 26, 18, 21, 0, 0, [0, 1, 1, 0, 0, 0, 0, 0]>, <341, 9, 27, 18, 21, 0, 0, [0, 1, 1, 0, 0, 0, 0, 0]>, <342, 10, 28, 18, 21, 0, 0, [0, 1, 1, 0, 0, 0, 0, 0]>, <343, 11, 29, 18, 21, 0, 0, [0, 1, 1, 0, 0, 0, 0, 0]>, <344, 12, 30, 18, 21, 0, 0, [0, 1, 1, 0, 0, 0, 0, 0]>, <345, 13, 31, 18, 21, 0, 0, [0, 1, 1, 0, 0, 0, 0, 0]>, <346, 14, 32, 18, 21, 0, 0, [0, 1, 1, 0, 0, 0, 0, 0]>, <347, 15, 33, 18, 21, 0, 0, [0, 1, 1, 0, 0, 0, 0, 0]>, <348, 16, 34, 18, 21, 0, 0, [0, 1, 1, 0, 0, 0, 0, 0]>, <349, 17, 35, 18, 21, 0, 0, [0, 1, 1, 0, 0, 0, 0, 0]>};
